peakDumbCharging = 18500; 
Machine = anon_enum(16); 
machineSpeed = [3700,3700,3700,3700,3700,3700,3700,3700,3700,3700,3700,3700,3700,3700,3700,3700]; 
machineLoad = [3700,3700,3700,3700,3700,3700,3700,3700,3700,3700,3700,3700,3700,3700,3700,3700]; 
Car = anon_enum(23); 
demandCar = [8400,10120,2280,15840,1360,2400,22440,25920,2120,400,3040,7360,8760,14880,29000,20880,25720,3720,13600,35680,35560,17560,6520]; 
arrivalCar = [78,70,70,67,65,63,62,62,62,61,61,53,53,48,43,41,35,32,32,31,26,25,24]; 
departureCar = [82,76,72,73,67,66,71,70,67,62,65,58,63,62,63,62,57,35,42,65,47,41,29]; 
